************************************************************************
file with basedata            : n/a
initial value random generator: n/a
************************************************************************
projects                      :  1
jobs (incl. supersource/sink ):  122
horizon                       :  654
RESOURCES
  - renewable                 :  4   R
  - nonrenewable              :  0   N
  - doubly constrained        :  0   D
************************************************************************
PROJECT INFORMATION:
pronr.  #jobs rel.date duedate tardcost  MPM-Time
    1    120      0      117      116      117
************************************************************************
PRECEDENCE RELATIONS:
jobnr.    #modes  #successors   successors
   1        1          3           2   3   4
   2        1          3          23  28  76
   3        1          3           6  29  47
   4        1          3           5  12  17
   5        1          3           7  30  58
   6        1          3          33  48  83
   7        1          3           8   9  10
   8        1          3          11  13  18
   9        1          3          19  20  26
  10        1          3          14  16  21
  11        1          2          25  87
  12        1          3          21  24  65
  13        1          3          38  44  70
  14        1          3          15  27  43
  15        1          3          41  52  69
  16        1          3          18  24  37
  17        1          2          45  60
  18        1          2          26  59
  19        1          3          57  64  91
  20        1          3          35  74  81
  21        1          3          22  51  55
  22        1          3          43  85  94
  23        1          3          30  40  44
  24        1          2          32  44
  25        1          2          45  60
  26        1          3          39  67  97
  27        1          2          50  99
  28        1          3          31  63  73
  29        1          3          51  55  93
  30        1          3          36  46 101
  31        1          3          34  84  94
  32        1          2          41  67
  33        1          3          37  77  86
  34        1          3          35  70  71
  35        1          2          75  87
  36        1          3          72  81 108
  37        1          3          43  68  73
  38        1          3          40  42  64
  39        1          1          66
  40        1          2          46  61
  41        1          3          46  51 100
  42        1          3          49  50  65
  43        1          2          53  54
  44        1          3          72  75  83
  45        1          3          61  68  90
  46        1          3          79  92 106
  47        1          2          60  80
  48        1          2          58  82
  49        1          1          52
  50        1          2          73  92
  51        1          1          95
  52        1          3          56  57  77
  53        1          2          67  90
  54        1          3          62  64  78
  55        1          3          72  76 116
  56        1          3          62  84 113
  57        1          2          74 121
  58        1          2          76  89
  59        1          3          62  65  97
  60        1          2          79  86
  61        1          3          80  82 109
  62        1          1          79
  63        1          3          68  78  80
  64        1          2          98 105
  65        1          2          83  93
  66        1          2          69  96
  67        1          1          92
  68        1          1         112
  69        1          3          75  77  89
  70        1          3          82  88 104
  71        1          3          88  97  99
  72        1          1          74
  73        1          2          81 113
  74        1          1         118
  75        1          1          88
  76        1          1          98
  77        1          2          84 115
  78        1          2          96  98
  79        1          1         105
  80        1          1         103
  81        1          3          90  94 106
  82        1          2          86 103
  83        1          3         109 111 117
  84        1          2          91 102
  85        1          2          89  96
  86        1          1         106
  87        1          3          95  99 102
  88        1          3          93 100 119
  89        1          1         101
  90        1          2          91 111
  91        1          2         100 104
  92        1          1         116
  93        1          2          95 114
  94        1          2         102 107
  95        1          1         108
  96        1          3         103 104 113
  97        1          1         101
  98        1          1         117
  99        1          1         118
 100        1          1         121
 101        1          3         105 110 114
 102        1          1         118
 103        1          1         107
 104        1          3         109 110 120
 105        1          1         108
 106        1          3         107 110 121
 107        1          1         111
 108        1          1         115
 109        1          1         112
 110        1          1         112
 111        1          1         114
 112        1          1         119
 113        1          1         117
 114        1          1         115
 115        1          1         116
 116        1          1         120
 117        1          1         120
 118        1          1         119
 119        1          1         122
 120        1          1         122
 121        1          1         122
 122        1          0        
************************************************************************
REQUESTS/DURATIONS:
jobnr. mode duration  R 1  R 2  R 3  R 4
------------------------------------------------------------------------
  1      1     0    
  2      1     1       2
                       5
                       5
                       0
  3      1     7      10  10  10   5  10  10   5
                       0   0   0   0   0   0   0
                       2   2   2   1   2   2   1
                       7   7   7   4   7   7   4
  4      1    10       0   0   0   0   0   0   0   0   0   0
                       6   6   6   6   6   6   6   6   6   6
                       3   3   3   3   3   3   3   3   3   3
                       0   0   0   0   0   0   0   0   0   0
  5      1     6       0   0   0   0   0   0
                       5   5   5   5   5   5
                       7   7   7   7   7   7
                       7   7   7   7   7   7
  6      1     1       5
                       6
                       5
                       4
  7      1     9       1   1   1   1   1   1   1   1   1
                      10  10  10  10  10  10  10   5  10
                       7   7   7   7   7   7   7   4   7
                       0   0   0   0   0   0   0   0   0
  8      1    10       1   1   1   1   1   1   1   1   1   1
                       5   9   9   9   9   9   9   9   9   9
                       5   9   9   9   9   9   9   9   9   9
                       5   9   9   9   9   9   9   9   9   9
  9      1     5       0   0   0   0   0
                      10  10  10  10  10
                       0   0   0   0   0
                       0   0   0   0   0
 10      1     6       0   0   0   0   0   0
                       7   7   7   7   7   7
                       0   0   0   0   0   0
                       7   7   7   7   7   7
 11      1     9       0   0   0   0   0   0   0   0   0
                       3   3   3   3   3   3   3   3   3
                       7   7   7   7   7   7   7   7   7
                       3   3   3   3   3   3   3   3   3
 12      1     9       2   4   4   4   4   4   4   4   4
                       0   0   0   0   0   0   0   0   0
                       0   0   0   0   0   0   0   0   0
                       0   0   0   0   0   0   0   0   0
 13      1     5       7   4   7   7   7
                       8   4   8   8   8
                       0   0   0   0   0
                       3   2   3   3   3
 14      1     5       0   0   0   0   0
                       4   4   2   4   4
                       2   2   1   2   2
                       8   8   4   8   8
 15      1     8       5   5   5   5   5   5   5   5
                       9   9   9   9   9   9   9   9
                       0   0   0   0   0   0   0   0
                       6   6   6   6   6   6   6   6
 16      1     6       1   1   1   1   1   1
                       7   7   7   7   4   7
                       4   4   4   4   2   4
                       0   0   0   0   0   0
 17      1    10       2   2   2   2   2   2   2   2   2   2
                       9   9   9   9   9   9   9   9   9   9
                       0   0   0   0   0   0   0   0   0   0
                       4   4   4   4   4   4   4   4   4   4
 18      1     6      10  10  10  10  10  10
                       1   1   1   1   1   1
                       5   5   5   5   5   5
                       0   0   0   0   0   0
 19      1    10       5   5   5   5   5   5   5   5   5   5
                       6   6   6   6   6   6   6   6   6   6
                       0   0   0   0   0   0   0   0   0   0
                       7   7   7   7   7   7   7   7   7   7
 20      1     5       3   3   3   3   3
                       0   0   0   0   0
                       0   0   0   0   0
                       6   6   6   6   6
 21      1     5       0   0   0   0   0
                       6   6   6   6   6
                      10  10  10  10  10
                       5   5   5   5   5
 22      1     2       0   0
                       4   4
                       3   3
                       7   7
 23      1     1       3
                       5
                       0
                       5
 24      1     3       5   5   5
                       8   8   8
                      10  10  10
                       7   7   7
 25      1     8       3   3   3   3   3   3   3   3
                       7   7   7   7   7   7   7   7
                       1   1   1   1   1   1   1   1
                       1   1   1   1   1   1   1   1
 26      1     9       2   2   2   1   2   2   2   2   2
                       1   1   1   1   1   1   1   1   1
                       0   0   0   0   0   0   0   0   0
                      10  10  10   5  10  10  10  10  10
 27      1     3      10  10  10
                       0   0   0
                       2   2   2
                       0   0   0
 28      1     4       9   9   9   9
                       0   0   0   0
                       2   2   2   2
                       4   4   4   4
 29      1     4       9   9   9   9
                       2   2   2   2
                       2   2   2   2
                      10  10  10  10
 30      1     4       6   6   6   6
                       2   2   2   2
                       4   4   4   4
                       1   1   1   1
 31      1     6       4   4   4   4   4   4
                       6   6   6   6   6   6
                       0   0   0   0   0   0
                       0   0   0   0   0   0
 32      1    10       4   4   4   4   4   4   4   4   4   4
                       9   9   9   9   9   9   9   9   9   9
                       0   0   0   0   0   0   0   0   0   0
                       8   8   8   8   8   8   8   8   8   8
 33      1     5       0   0   0   0   0
                       9   9   9   9   9
                       6   6   6   6   6
                      10  10  10  10  10
 34      1     5       8   8   8   8   8
                       0   0   0   0   0
                      10  10  10  10  10
                       9   9   9   9   9
 35      1     5       0   0   0   0   0
                       5   5   5   5   5
                       7   7   7   7   7
                       8   8   8   8   8
 36      1    10       4   4   4   4   4   4   4   4   4   4
                       3   3   3   3   3   3   3   3   3   3
                       1   1   1   1   1   1   1   1   1   1
                       0   0   0   0   0   0   0   0   0   0
 37      1     7      10  10   5  10  10  10  10
                       9   9   5   9   9   9   9
                       2   2   1   2   2   2   2
                       8   8   4   8   8   8   8
 38      1     7      10  10  10  10  10  10  10
                       1   1   1   1   1   1   1
                       0   0   0   0   0   0   0
                       6   6   6   6   6   6   6
 39      1     3       0   0   0
                       6   6   6
                       6   6   6
                       0   0   0
 40      1     7       2   1   2   2   2   1   2
                       1   1   1   1   1   1   1
                       8   4   8   8   8   4   8
                       6   3   6   6   6   3   6
 41      1     3       3   3   3
                       1   1   1
                       4   4   4
                       3   3   3
 42      1     4       1   1   1   1
                      10  10  10  10
                       0   0   0   0
                       9   9   9   9
 43      1     8       8   8   8   8   8   8   8   8
                       0   0   0   0   0   0   0   0
                      10  10  10  10  10  10  10  10
                       1   1   1   1   1   1   1   1
 44      1     1       0
                       2
                       3
                       4
 45      1    10       3   2   3   3   3   3   3   3   3   3
                       4   2   4   4   4   4   4   4   4   4
                       1   1   1   1   1   1   1   1   1   1
                       1   1   1   1   1   1   1   1   1   1
 46      1     2       8   8
                       9   9
                       0   0
                       6   6
 47      1     3       1   1   1
                       1   1   1
                       9   9   9
                       0   0   0
 48      1     1       0
                       4
                       0
                       5
 49      1     7       1   1   1   1   1   1   1
                       6   6   6   6   6   6   6
                       0   0   0   0   0   0   0
                       0   0   0   0   0   0   0
 50      1     9       0   0   0   0   0   0   0   0   0
                      10  10  10  10  10  10  10  10  10
                       2   2   2   2   2   2   2   2   2
                       0   0   0   0   0   0   0   0   0
 51      1    10       9   9   9   9   9   9   9   9   9   9
                       4   4   4   4   4   4   4   4   4   4
                       0   0   0   0   0   0   0   0   0   0
                       0   0   0   0   0   0   0   0   0   0
 52      1     9       2   2   1   2   2   2   2   2   2
                      10  10   5  10  10  10  10  10  10
                       0   0   0   0   0   0   0   0   0
                       0   0   0   0   0   0   0   0   0
 53      1     1       7
                       5
                       5
                       3
 54      1     6       2   2   2   2   2   2
                       1   1   1   1   1   1
                       6   6   6   6   6   6
                       0   0   0   0   0   0
 55      1     1       6
                       6
                       0
                       4
 56      1     5       4   4   4   2   4
                       1   1   1   1   1
                       4   4   4   2   4
                       5   5   5   3   5
 57      1     1       9
                       2
                      10
                       0
 58      1     4       0   0   0   0
                       5   5   5   5
                      10  10  10  10
                       0   0   0   0
 59      1     9       0   0   0   0   0   0   0   0   0
                       4   4   4   4   4   4   4   4   4
                       9   9   9   9   9   9   9   9   9
                       0   0   0   0   0   0   0   0   0
 60      1     4       0   0   0   0
                       4   4   4   4
                       6   6   6   6
                       0   0   0   0
 61      1     1       0
                       3
                       3
                       9
 62      1     8       0   0   0   0   0   0   0   0
                       0   0   0   0   0   0   0   0
                       9   9   9   9   9   9   9   9
                       2   2   2   2   2   2   2   2
 63      1     2       4   8
                       0   0
                       5   9
                       0   0
 64      1     2      10  10
                       3   3
                       3   3
                       3   3
 65      1     8      10  10  10  10  10   5  10   5
                       9   9   9   9   9   5   9   5
                       8   8   8   8   8   4   8   4
                       0   0   0   0   0   0   0   0
 66      1     6       4   4   4   4   4   4
                       0   0   0   0   0   0
                       9   9   9   9   9   9
                       7   7   7   7   7   7
 67      1     2       9   9
                       2   2
                       0   0
                       0   0
 68      1    10       2   2   2   2   1   2   1   1   2   1
                       4   4   4   4   2   4   2   2   4   2
                       0   0   0   0   0   0   0   0   0   0
                       6   6   6   6   3   6   3   3   6   3
 69      1     4       5   5   5   5
                       0   0   0   0
                       2   2   2   2
                       0   0   0   0
 70      1     2       0   0
                      10  10
                       8   8
                       0   0
 71      1     8       9   9   9   9   9   9   9   9
                       1   1   1   1   1   1   1   1
                       4   4   4   4   4   4   4   4
                      10  10  10  10  10  10  10  10
 72      1     7      10  10   5  10  10  10  10
                       5   5   3   5   5   5   5
                       3   3   2   3   3   3   3
                       0   0   0   0   0   0   0
 73      1     6       3   3   3   2   3   3
                       0   0   0   0   0   0
                       7   7   7   4   7   7
                      10  10  10   5  10  10
 74      1     9       1   1   1   1   1   1   1   1   1
                       4   4   4   4   4   4   4   4   4
                       6   6   6   6   6   6   6   6   6
                       6   6   6   6   6   6   6   6   6
 75      1     5       3   3   2   3   3
                       0   0   0   0   0
                       5   5   3   5   5
                      10  10   5  10  10
 76      1     2       0   0
                       0   0
                       6   6
                       0   0
 77      1     4       0   0   0   0
                       8   8   8   8
                      10  10  10  10
                       9   9   9   9
 78      1     9       4   4   4   4   4   4   4   4   4
                       4   4   4   4   4   4   4   4   4
                       8   8   8   8   8   8   8   8   8
                       4   4   4   4   4   4   4   4   4
 79      1     4       8   8   8   8
                       3   3   3   3
                       3   3   3   3
                       7   7   7   7
 80      1     2      10  10
                       2   2
                       8   8
                       0   0
 81      1     4      10  10  10  10
                       8   8   8   8
                       7   7   7   7
                       0   0   0   0
 82      1     3       1   1   1
                       7   7   7
                       0   0   0
                       0   0   0
 83      1    10       2   2   2   2   2   2   2   2   2   2
                       8   8   8   8   8   8   8   8   8   8
                       4   4   4   4   4   4   4   4   4   4
                       0   0   0   0   0   0   0   0   0   0
 84      1     2       4   4
                       0   0
                       9   9
                       8   8
 85      1     2       0   0
                       0   0
                      10  10
                       5   5
 86      1     4       1   1   1   1
                      10  10  10  10
                       1   1   1   1
                       0   0   0   0
 87      1     9      10  10   5  10  10  10  10  10  10
                       1   1   1   1   1   1   1   1   1
                       1   1   1   1   1   1   1   1   1
                      10  10   5  10  10  10  10  10  10
 88      1     3       9   9   9
                       7   7   7
                       1   1   1
                       7   7   7
 89      1     9       1   1   1   1   1   1   1   1   1
                       6   6   6   6   6   6   6   6   6
                       7   7   7   7   7   7   7   7   7
                       3   3   3   3   3   3   3   3   3
 90      1     4       3   3   2   3
                       7   7   4   7
                       6   6   3   6
                       2   2   1   2
 91      1     5       2   2   2   2   2
                       2   2   2   2   2
                       0   0   0   0   0
                       8   8   8   8   8
 92      1     1       3
                       1
                       0
                       0
 93      1     7       6   6   6   6   6   3   6
                      10  10  10  10  10   5  10
                       0   0   0   0   0   0   0
                       3   3   3   3   3   2   3
 94      1    10      10  10  10  10  10  10  10  10  10  10
                       6   6   6   6   6   6   6   6   6   6
                       0   0   0   0   0   0   0   0   0   0
                       5   5   5   5   5   5   5   5   5   5
 95      1    10      10  10  10  10   5  10  10  10  10  10
                       3   3   3   3   2   3   3   3   3   3
                       9   9   9   9   5   9   9   9   9   9
                       4   4   4   4   2   4   4   4   4   4
 96      1     6       0   0   0   0   0   0
                       7   7   7   7   7   7
                       5   5   5   5   5   5
                       4   4   4   4   4   4
 97      1     2       9   9
                       9   9
                       5   5
                       3   3
 98      1     1       8
                       3
                       8
                       9
 99      1     2       3   3
                       6   6
                       8   8
                       0   0
100      1     4       3   3   3   3
                       1   1   1   1
                       0   0   0   0
                       7   7   7   7
101      1    10       1   1   1   1   1   1   1   1   1   1
                       0   0   0   0   0   0   0   0   0   0
                       8   8   8   8   8   8   8   8   8   8
                       7   7   7   7   7   7   7   7   7   7
102      1    10       1   1   1   1   1   1   1   1   1   1
                       4   4   4   4   4   4   4   4   4   4
                       3   3   3   3   3   3   3   3   3   3
                       5   5   5   5   5   5   5   5   5   5
103      1     5       9   9   9   9   9
                       3   3   3   3   3
                       5   5   5   5   5
                      10  10  10  10  10
104      1     1       0
                       2
                       3
                       2
105      1     5       0   0   0   0   0
                       4   4   4   4   4
                       9   9   9   9   9
                       5   5   5   5   5
106      1     7       7   7   7   7   7   7   7
                       7   7   7   7   7   7   7
                       3   3   3   3   3   3   3
                       3   3   3   3   3   3   3
107      1     1      10
                       2
                       3
                       0
108      1     4       2   2   2   2
                       0   0   0   0
                       4   4   4   4
                       9   9   9   9
109      1     8       3   3   3   3   3   3   3   3
                       2   2   2   2   2   2   2   2
                       3   3   3   3   3   3   3   3
                       0   0   0   0   0   0   0   0
110      1     8       6   6   6   6   6   6   6   6
                       0   0   0   0   0   0   0   0
                      10  10  10  10  10  10  10  10
                      10  10  10  10  10  10  10  10
111      1     3       7   7   7
                      10  10  10
                       9   9   9
                       8   8   8
112      1     5       8   8   8   8   4
                      10  10  10  10   5
                       5   5   5   5   3
                       4   4   4   4   2
113      1     8       0   0   0   0   0   0   0   0
                       3   3   3   3   3   3   3   3
                       2   2   2   2   2   2   2   2
                       7   7   7   7   7   7   7   7
114      1     5       3   3   3   3   2
                      10  10  10  10   5
                       4   4   4   4   2
                       2   2   2   2   1
115      1     7       5   5   5   5   5   5   5
                       0   0   0   0   0   0   0
                       0   0   0   0   0   0   0
                       0   0   0   0   0   0   0
116      1     6       6   6   6   6   6   6
                       0   0   0   0   0   0
                       2   2   2   2   2   2
                       3   3   3   3   3   3
117      1     3       0   0   0
                       0   0   0
                       5   9   9
                       3   6   6
118      1     5       6   6   6   6   6
                       0   0   0   0   0
                       4   4   4   4   4
                       8   8   8   8   8
119      1     3       6   6   6
                       6   6   6
                       3   3   3
                       9   9   9
120      1    10       5   5   5   3   3   5   5   5   5   5
                       0   0   0   0   0   0   0   0   0   0
                      10  10  10   5   5  10  10  10  10  10
                       0   0   0   0   0   0   0   0   0   0
121      1     7       2   2   2   2   2   2   2
                       2   2   2   2   2   2   2
                       6   6   6   6   6   6   6
                       9   9   9   9   9   9   9
122      1     0    
************************************************************************
RESOURCEAVAILABILITIES:
  R 1  R 2  R 3  R 4

  23  23  23  23  23  23  23  23  23  23  23  23  23  12  12  23  23  23  23  23  23  23  23  23  23  23  23  23  23  23  23  23  23  23  23  23  23  23  23  23  23  23  23  23  23  23  23  23  23  23  23  23  23  23  23  23  23  23  23  23  23  23  23  23  23  23  23  23  23  23  23  12  23  23  23  23  23  23  23  23  23  23  23  23  23  23  23  23  23  23  23  23  23  23  23  23  23  23  23  23  23  23  23  23  23  23  23  23  23  23  23  23  23  23  23  23  23  23  23  23  23  23  23  23  23  23  23  23  23  23  23  23  23  23  23  23  12  23  23  23  23  23  23  23  23  23  23  23  23  12  23  23  23  23  23  23  23  23  12  23  23  23  23  23  23  23  23  23  23  23  23  23  23  23  23  23  23  23  12  23  23  23  23  23  23  23  23  23  23  23  23  23  23  23  23  23  23  23  23  23  23  23  23  12  23  23  23  23  23  23  12  23  23  23  23  23  23  23  23  23  23  23  23  23  12  23  23  23  23  23  23  12  23  23  23  23  23  23  23  23  23  23  23  23  23  23  23  23  23  23  23  23  23  23  23  23  12  23  23  23  23  23  23  12  23  23  23  23  23  23  23  23  23  23  23  23  23  23  23  23  23  23  23  23  23  23  23  23  23  23  23  23  23  23  23  23  23  12  23  23  23  23  23  23  23  23  23  12  23  23  23  23  23  23  23  23  23  23  23  23  23  23  23  23  12  23  23  23  23  23  23  23  23  23  23  23  12  23  23  23  23  23  23  23  23  23  23  23  23  23  23  23  23  23  23  23  23  23  23  23  23  12  23  23  23  23  23  23  23  23  23  23  23  23  23  23  23  23  23  23  23  23  23  23  23  23  23  23  23  23  23  23  23  23  23  23  23  23  23  23  23  23  23  23  23  23  23  23  23  23  23  23  23  23  23  23  23  23  23  23  23  23  23  23  23  23  23  23  23  23  23  23  23  23  23  23  23  23  23  23  23  23  23  23  23  23  23  23  23  23  12  23  23  23  23  23  23  23  23  23  12  23  23  23  23  12  23  23  23  23  23  23  23  23  23  23  23  23  23  23  12  23  23  23  23  23  23  23  23  23  23  23  23  23  23  23  23  23  23  23  12  23  23  23  23  23  23  23  23  23  23  12  23  12  23  23  23  23  23  23  23  23  23  23  23  23  23  12  23  23  23  23  23  23  23  23  12  23  23  23  23  23  23  23  23  23  23  23  23  12  12  23  23  23  23  23  23  23  23  23  23  23  23  23  23  23  23  23  23  23  23  23  23  23  23  12  23  23  23  23  23  23  23  23  23  23  23  23  23  23  23  12  23  23  23  23  12  23  23  23  23  23  23  23  23  23  23  23  23  23  23  23  23  23  23  23  23  23  23  23  23  23  23  23  23  23  23  23  23  23  23  23  23  23  23  23  23  23  23  23  23  23  23  23  23  23  23  23  23  23  23  23  12  23

  26  26  26  26  26  26  26  26  26  26  26  26  26  13  13  26  26  26  26  26  26  26  26  26  26  26  26  26  26  26  26  26  26  26  26  26  26  26  26  26  26  26  26  26  26  26  26  26  26  26  26  26  26  26  26  26  26  26  26  26  26  26  26  26  26  26  26  26  26  26  26  13  26  26  26  26  26  26  26  26  26  26  26  26  26  26  26  26  26  26  26  26  26  26  26  26  26  26  26  26  26  26  26  26  26  26  26  26  26  26  26  26  26  26  26  26  26  26  26  26  26  26  26  26  26  26  26  26  26  26  26  26  26  26  26  26  13  26  26  26  26  26  26  26  26  26  26  26  26  13  26  26  26  26  26  26  26  26  13  26  26  26  26  26  26  26  26  26  26  26  26  26  26  26  26  26  26  26  13  26  26  26  26  26  26  26  26  26  26  26  26  26  26  26  26  26  26  26  26  26  26  26  26  13  26  26  26  26  26  26  13  26  26  26  26  26  26  26  26  26  26  26  26  26  13  26  26  26  26  26  26  13  26  26  26  26  26  26  26  26  26  26  26  26  26  26  26  26  26  26  26  26  26  26  26  26  13  26  26  26  26  26  26  13  26  26  26  26  26  26  26  26  26  26  26  26  26  26  26  26  26  26  26  26  26  26  26  26  26  26  26  26  26  26  26  26  26  13  26  26  26  26  26  26  26  26  26  13  26  26  26  26  26  26  26  26  26  26  26  26  26  26  26  26  13  26  26  26  26  26  26  26  26  26  26  26  13  26  26  26  26  26  26  26  26  26  26  26  26  26  26  26  26  26  26  26  26  26  26  26  26  13  26  26  26  26  26  26  26  26  26  26  26  26  26  26  26  26  26  26  26  26  26  26  26  26  26  26  26  26  26  26  26  26  26  26  26  26  26  26  26  26  26  26  26  26  26  26  26  26  26  26  26  26  26  26  26  26  26  26  26  26  26  26  26  26  26  26  26  26  26  26  26  26  26  26  26  26  26  26  26  26  26  26  26  26  26  26  26  26  13  26  26  26  26  26  26  26  26  26  13  26  26  26  26  13  26  26  26  26  26  26  26  26  26  26  26  26  26  26  13  26  26  26  26  26  26  26  26  26  26  26  26  26  26  26  26  26  26  26  13  26  26  26  26  26  26  26  26  26  26  13  26  13  26  26  26  26  26  26  26  26  26  26  26  26  26  13  26  26  26  26  26  26  26  26  13  26  26  26  26  26  26  26  26  26  26  26  26  13  13  26  26  26  26  26  26  26  26  26  26  26  26  26  26  26  26  26  26  26  26  26  26  26  26  13  26  26  26  26  26  26  26  26  26  26  26  26  26  26  26  13  26  26  26  26  13  26  26  26  26  26  26  26  26  26  26  26  26  26  26  26  26  26  26  26  26  26  26  26  26  26  26  26  26  26  26  26  26  26  26  26  26  26  26  26  26  26  26  26  26  26  26  26  26  26  26  26  26  26  26  26  13  26

  25  25  25  25  25  25  25  25  25  25  25  25  25  13  13  25  25  25  25  25  25  25  25  25  25  25  25  25  25  25  25  25  25  25  25  25  25  25  25  25  25  25  25  25  25  25  25  25  25  25  25  25  25  25  25  25  25  25  25  25  25  25  25  25  25  25  25  25  25  25  25  13  25  25  25  25  25  25  25  25  25  25  25  25  25  25  25  25  25  25  25  25  25  25  25  25  25  25  25  25  25  25  25  25  25  25  25  25  25  25  25  25  25  25  25  25  25  25  25  25  25  25  25  25  25  25  25  25  25  25  25  25  25  25  25  25  13  25  25  25  25  25  25  25  25  25  25  25  25  13  25  25  25  25  25  25  25  25  13  25  25  25  25  25  25  25  25  25  25  25  25  25  25  25  25  25  25  25  13  25  25  25  25  25  25  25  25  25  25  25  25  25  25  25  25  25  25  25  25  25  25  25  25  13  25  25  25  25  25  25  13  25  25  25  25  25  25  25  25  25  25  25  25  25  13  25  25  25  25  25  25  13  25  25  25  25  25  25  25  25  25  25  25  25  25  25  25  25  25  25  25  25  25  25  25  25  13  25  25  25  25  25  25  13  25  25  25  25  25  25  25  25  25  25  25  25  25  25  25  25  25  25  25  25  25  25  25  25  25  25  25  25  25  25  25  25  25  13  25  25  25  25  25  25  25  25  25  13  25  25  25  25  25  25  25  25  25  25  25  25  25  25  25  25  13  25  25  25  25  25  25  25  25  25  25  25  13  25  25  25  25  25  25  25  25  25  25  25  25  25  25  25  25  25  25  25  25  25  25  25  25  13  25  25  25  25  25  25  25  25  25  25  25  25  25  25  25  25  25  25  25  25  25  25  25  25  25  25  25  25  25  25  25  25  25  25  25  25  25  25  25  25  25  25  25  25  25  25  25  25  25  25  25  25  25  25  25  25  25  25  25  25  25  25  25  25  25  25  25  25  25  25  25  25  25  25  25  25  25  25  25  25  25  25  25  25  25  25  25  25  13  25  25  25  25  25  25  25  25  25  13  25  25  25  25  13  25  25  25  25  25  25  25  25  25  25  25  25  25  25  13  25  25  25  25  25  25  25  25  25  25  25  25  25  25  25  25  25  25  25  13  25  25  25  25  25  25  25  25  25  25  13  25  13  25  25  25  25  25  25  25  25  25  25  25  25  25  13  25  25  25  25  25  25  25  25  13  25  25  25  25  25  25  25  25  25  25  25  25  13  13  25  25  25  25  25  25  25  25  25  25  25  25  25  25  25  25  25  25  25  25  25  25  25  25  13  25  25  25  25  25  25  25  25  25  25  25  25  25  25  25  13  25  25  25  25  13  25  25  25  25  25  25  25  25  25  25  25  25  25  25  25  25  25  25  25  25  25  25  25  25  25  25  25  25  25  25  25  25  25  25  25  25  25  25  25  25  25  25  25  25  25  25  25  25  25  25  25  25  25  25  25  13  25

  22  22  22  22  22  22  22  22  22  22  22  22  22  11  11  22  22  22  22  22  22  22  22  22  22  22  22  22  22  22  22  22  22  22  22  22  22  22  22  22  22  22  22  22  22  22  22  22  22  22  22  22  22  22  22  22  22  22  22  22  22  22  22  22  22  22  22  22  22  22  22  11  22  22  22  22  22  22  22  22  22  22  22  22  22  22  22  22  22  22  22  22  22  22  22  22  22  22  22  22  22  22  22  22  22  22  22  22  22  22  22  22  22  22  22  22  22  22  22  22  22  22  22  22  22  22  22  22  22  22  22  22  22  22  22  22  11  22  22  22  22  22  22  22  22  22  22  22  22  11  22  22  22  22  22  22  22  22  11  22  22  22  22  22  22  22  22  22  22  22  22  22  22  22  22  22  22  22  11  22  22  22  22  22  22  22  22  22  22  22  22  22  22  22  22  22  22  22  22  22  22  22  22  11  22  22  22  22  22  22  11  22  22  22  22  22  22  22  22  22  22  22  22  22  11  22  22  22  22  22  22  11  22  22  22  22  22  22  22  22  22  22  22  22  22  22  22  22  22  22  22  22  22  22  22  22  11  22  22  22  22  22  22  11  22  22  22  22  22  22  22  22  22  22  22  22  22  22  22  22  22  22  22  22  22  22  22  22  22  22  22  22  22  22  22  22  22  11  22  22  22  22  22  22  22  22  22  11  22  22  22  22  22  22  22  22  22  22  22  22  22  22  22  22  11  22  22  22  22  22  22  22  22  22  22  22  11  22  22  22  22  22  22  22  22  22  22  22  22  22  22  22  22  22  22  22  22  22  22  22  22  11  22  22  22  22  22  22  22  22  22  22  22  22  22  22  22  22  22  22  22  22  22  22  22  22  22  22  22  22  22  22  22  22  22  22  22  22  22  22  22  22  22  22  22  22  22  22  22  22  22  22  22  22  22  22  22  22  22  22  22  22  22  22  22  22  22  22  22  22  22  22  22  22  22  22  22  22  22  22  22  22  22  22  22  22  22  22  22  22  11  22  22  22  22  22  22  22  22  22  11  22  22  22  22  11  22  22  22  22  22  22  22  22  22  22  22  22  22  22  11  22  22  22  22  22  22  22  22  22  22  22  22  22  22  22  22  22  22  22  11  22  22  22  22  22  22  22  22  22  22  11  22  11  22  22  22  22  22  22  22  22  22  22  22  22  22  11  22  22  22  22  22  22  22  22  11  22  22  22  22  22  22  22  22  22  22  22  22  11  11  22  22  22  22  22  22  22  22  22  22  22  22  22  22  22  22  22  22  22  22  22  22  22  22  11  22  22  22  22  22  22  22  22  22  22  22  22  22  22  22  11  22  22  22  22  11  22  22  22  22  22  22  22  22  22  22  22  22  22  22  22  22  22  22  22  22  22  22  22  22  22  22  22  22  22  22  22  22  22  22  22  22  22  22  22  22  22  22  22  22  22  22  22  22  22  22  22  22  22  22  22  11  22

************************************************************************
